solution status: time limit reached
objective value:                          51302.37711
y#9                                                 1 	(obj:5700)
y#14                                                1 	(obj:5700)
y#15                                                1 	(obj:5700)
y#17                                                1 	(obj:5700)
y#27                                                1 	(obj:5700)
y#29                                                1 	(obj:5700)
y#35                                                1 	(obj:5700)
y#42                                                1 	(obj:5700)
y#52                                                1 	(obj:5700)
x#1#29                                              1 	(obj:0.01326)
x#2#29                                              1 	(obj:0.01326)
x#3#15                                              1 	(obj:0.03417)
x#4#17                                              1 	(obj:0.03468)
x#5#14                                              1 	(obj:0.00289)
x#6#27                                              1 	(obj:0.01326)
x#7#52                                              1 	(obj:0.01666)
x#8#9                                               1 	(obj:0.03094)
x#9#29                                              1 	(obj:0.02805)
x#10#27                                             1 	(obj:0.03383)
x#11#27                                             1 	(obj:0.0357)
x#12#17                                             1 	(obj:0.03774)
x#13#15                                             1 	(obj:0.02788)
x#14#14                                             1 	(obj:0.00918)
x#15#9                                              1 	(obj:0.03519)
x#16#42                                             1 	(obj:0.0221)
x#17#42                                             1 	(obj:0.03077)
x#18#9                                              1 	(obj:0.0085)
x#19#17                                             1 	(obj:0.0272)
x#20#9                                              1 	(obj:0.01802)
x#21#29                                             1 	(obj:0.03043)
x#22#29                                             1 	(obj:0.01615)
x#23#52                                             1 	(obj:0.0272)
x#24#17                                             1 	(obj:0.03893)
x#25#14                                             1 	(obj:0.0153)
x#26#14                                             1 	(obj:0.00153)
x#27#14                                             1 	(obj:0.01904)
x#28#27                                             1 	(obj:0.0391)
x#29#27                                             1 	(obj:0.01513)
x#30#42                                             1 	(obj:0.00442)
x#31#52                                             1 	(obj:0.02686)
x#32#42                                             1 	(obj:0.03332)
x#33#17                                             1 	(obj:0.01241)
x#34#42                                             1 	(obj:0.06273)
x#35#14                                             1 	(obj:0.04012)
x#36#52                                             1 	(obj:0.0357)
x#37#17                                             1 	(obj:0.03213)
x#38#15                                             1 	(obj:0.00595)
x#39#14                                             1 	(obj:0.03468)
x#40#15                                             1 	(obj:0.00697)
x#41#35                                             1 	(obj:0.01972)
x#42#35                                             1 	(obj:0.02499)
x#43#52                                             1 	(obj:0.05372)
x#44#17                                             1 	(obj:0.01479)
x#45#29                                             1 	(obj:0.01326)
x#46#9                                              1 	(obj:0.02159)
x#47#27                                             1 	(obj:0.02431)
x#48#9                                              1 	(obj:0.03485)
x#49#27                                             1 	(obj:0.03128)
x#50#35                                             1 	(obj:0.02839)
x#51#9                                              1 	(obj:0.02431)
x#52#27                                             1 	(obj:0.03434)
x#53#35                                             1 	(obj:0.02635)
x#54#9                                              1 	(obj:0.04131)
x#55#29                                             1 	(obj:0.02414)
x#56#35                                             1 	(obj:0.00051)
x#57#52                                             1 	(obj:0.02805)
x#58#42                                             1 	(obj:0.00561)
x#59#29                                             1 	(obj:0.01955)
x#60#14                                             1 	(obj:0.03196)
x#61#52                                             1 	(obj:0.02788)
x#62#35                                             1 	(obj:0.02924)
x#63#29                                             1 	(obj:0.01683)
x#64#35                                             1 	(obj:0.04267)
x#65#42                                             1 	(obj:0.03621)
x#66#9                                              1 	(obj:0.0102)
x#67#29                                             1 	(obj:0.0119)
x#68#27                                             1 	(obj:0.00476)
x#69#35                                             1 	(obj:0.0102)
x#70#52                                             1 	(obj:0.02108)
x#71#14                                             1 	(obj:0.03927)
x#72#29                                             1 	(obj:0.02737)
x#73#52                                             1 	(obj:0.04063)
x#74#15                                             1 	(obj:0.00765)
x#75#15                                             1 	(obj:0.01989)
x#76#52                                             1 	(obj:0.05168)
x#77#15                                             1 	(obj:0.0085)
x#78#27                                             1 	(obj:0.0153)
x#79#35                                             1 	(obj:0.02873)
x#80#17                                             1 	(obj:0.02108)
x#81#17                                             1 	(obj:0.00935)
x#82#15                                             1 	(obj:0.0085)
x#83#14                                             1 	(obj:0.02108)
x#84#15                                             1 	(obj:0.03859)
x#85#15                                             1 	(obj:0.03485)
x#86#17                                             1 	(obj:0.01088)
x#87#27                                             1 	(obj:0.01377)
x#88#42                                             1 	(obj:0.05236)
x#89#42                                             1 	(obj:0.01224)
x#90#9                                              1 	(obj:0.02414)
x#91#52                                             1 	(obj:0.01598)
x#92#15                                             1 	(obj:0.01666)
x#93#42                                             1 	(obj:0.017)
x#94#42                                             1 	(obj:0.01241)
x#95#42                                             1 	(obj:0.01938)
x#96#9                                              1 	(obj:0.0102)
x#97#17                                             1 	(obj:0.02193)
x#98#35                                             1 	(obj:0.02295)
x#99#27                                             1 	(obj:0.03961)
x#100#14                                            1 	(obj:0.02975)
